************************************************************************
file with basedata            : j901_.bas
initial value random generator: 15941
************************************************************************
projects                      :  1
jobs (incl. supersource/sink ):  92
horizon                       :  507
RESOURCES
  - renewable                 :  4   R
  - nonrenewable              :  0   N
  - doubly constrained        :  0   D
************************************************************************
PROJECT INFORMATION:
pronr.  #jobs rel.date duedate tardcost  MPM-Time
    1     90      0       67        9       67
************************************************************************
PRECEDENCE RELATIONS:
jobnr.    #modes  #successors   successors
   1        1          3           2   3   4
   2        1          2          11  24
   3        1          3           7   8  15
   4        1          3           5   6  19
   5        1          3          10  30  91
   6        1          3           9  22  26
   7        1          2          23  27
   8        1          1          42
   9        1          3          17  25  61
  10        1          2          13  52
  11        1          3          12  29  45
  12        1          3          14  16  18
  13        1          1          83
  14        1          1          56
  15        1          3          20  35  36
  16        1          1          38
  17        1          1          65
  18        1          3          21  47  66
  19        1          1          71
  20        1          2          28  33
  21        1          3          32  57  88
  22        1          1          63
  23        1          2          34  70
  24        1          3          31  47  67
  25        1          1          70
  26        1          3          37  39  54
  27        1          1          49
  28        1          3          41  63  77
  29        1          1          44
  30        1          1          85
  31        1          1          82
  32        1          2          51  71
  33        1          3          52  53  78
  34        1          1          73
  35        1          1          55
  36        1          3          40  43  48
  37        1          2          46  61
  38        1          1          82
  39        1          1          59
  40        1          1          63
  41        1          3          73  76  86
  42        1          1          50
  43        1          1          77
  44        1          1          58
  45        1          1          68
  46        1          1          90
  47        1          1          54
  48        1          1          50
  49        1          1          68
  50        1          1          87
  51        1          1          72
  52        1          1          61
  53        1          1          81
  54        1          1          84
  55        1          1          62
  56        1          3          60  69  80
  57        1          1          79
  58        1          2          59  76
  59        1          1          85
  60        1          2          72  74
  61        1          1          74
  62        1          1          64
  63        1          1          70
  64        1          1          75
  65        1          1          85
  66        1          1          79
  67        1          1          86
  68        1          1          78
  69        1          2          73  83
  70        1          1          72
  71        1          1          78
  72        1          2          81  90
  73        1          1          90
  74        1          1          79
  75        1          1          80
  76        1          1          83
  77        1          1          86
  78        1          1          84
  79        1          1          87
  80        1          1          82
  81        1          1          91
  82        1          1          89
  83        1          1          88
  84        1          1          91
  85        1          1          87
  86        1          1          88
  87        1          1          89
  88        1          1          89
  89        1          1          92
  90        1          1          92
  91        1          1          92
  92        1          0        
************************************************************************
REQUESTS/DURATIONS:
jobnr. mode duration  R 1  R 2  R 3  R 4
------------------------------------------------------------------------
  1      1     0       0    0    0    0
  2      1     8       0    0    0    3
  3      1    10       0    0    7    0
  4      1     1       2    0    0    0
  5      1     2       0    0    0    7
  6      1    10       0    0   10    0
  7      1     8       0    0    0    6
  8      1     6       8    0    0    0
  9      1     9       0    0    0    4
 10      1     1       0    2    0    0
 11      1     8       0    7    0    0
 12      1     2       0    0    6    0
 13      1     7       0    0    0   10
 14      1     2       0    0    0   10
 15      1     7       8    0    0    0
 16      1     4       0    2    0    0
 17      1    10       0    0    0    6
 18      1     9       2    0    0    0
 19      1     9       0    0    6    0
 20      1     3       0    7    0    0
 21      1     7       0    6    0    0
 22      1     2       0    0    0    6
 23      1     9       9    0    0    0
 24      1     6       2    0    0    0
 25      1     3       1    0    0    0
 26      1     3       0    0   10    0
 27      1     6       0    0    9    0
 28      1     5       0    0    7    0
 29      1     6       0    0    9    0
 30      1     8       7    0    0    0
 31      1     5       4    0    0    0
 32      1     4       0    0    1    0
 33      1     7       0    7    0    0
 34      1     7       0    0    0    1
 35      1     2       8    0    0    0
 36      1     8       0    4    0    0
 37      1     4       0    9    0    0
 38      1     9       0    6    0    0
 39      1     5       0    0    8    0
 40      1     7       0    0    0    7
 41      1     6       0    0    0    5
 42      1     8       0    0    9    0
 43      1     8       4    0    0    0
 44      1     1       0    0    4    0
 45      1     1       0    0    9    0
 46      1     8       0    0    4    0
 47      1     6       0    4    0    0
 48      1     9       0    0    6    0
 49      1     1       0    0    0    5
 50      1     8       0    0    0    3
 51      1     8       0    0    7    0
 52      1    10       6    0    0    0
 53      1     3       0    0    5    0
 54      1     6       0    0    0    5
 55      1     3       0    8    0    0
 56      1    10       0    0    6    0
 57      1     5       0    0    7    0
 58      1     2       0    0    7    0
 59      1     3       5    0    0    0
 60      1     3       0    4    0    0
 61      1     3       0    5    0    0
 62      1     5       0    7    0    0
 63      1     9       0    3    0    0
 64      1     5       3    0    0    0
 65      1     4       0    1    0    0
 66      1     8       0    0    0    2
 67      1     9       0    0    0    1
 68      1     4       0    8    0    0
 69      1     2       8    0    0    0
 70      1     7       0    4    0    0
 71      1     2       0    0    0    3
 72      1     1       0   10    0    0
 73      1     5       7    0    0    0
 74      1     9       0    0    0    5
 75      1     4       0    0    5    0
 76      1     2       0    0    0    2
 77      1     7       0    8    0    0
 78      1     8       0    2    0    0
 79      1     8       0    0    0    2
 80      1     1       0    0    0    4
 81      1     6       0    0   10    0
 82      1    10       0    0    5    0
 83      1     9       0    0    0    9
 84      1     2       7    0    0    0
 85      1     7       0    0    0    5
 86      1     9       0    0    3    0
 87      1     8       0   10    0    0
 88      1     1       0    8    0    0
 89      1     2       3    0    0    0
 90      1     9       0    6    0    0
 91      1     3       0    6    0    0
 92      1     0       0    0    0    0
************************************************************************
RESOURCEAVAILABILITIES:
  R 1  R 2  R 3  R 4
   12   14   17   13
************************************************************************
